(set-logic ALL)
(declare-fun var0 () String)
(assert (str.in_re var0 (re.++ (re.* (re.+ (str.to_re "000"))) (re.++ (re.union (re.+ (str.to_re "111")) (re.+ (str.to_re "22"))) (re.++ (re.* (re.union (str.to_re "333") (str.to_re "444"))) (re.++ (re.+ (re.* (str.to_re "5"))) (re.++ (re.union (re.union (str.to_re "666") (str.to_re "77")) (re.union (str.to_re "8") (str.to_re "9"))) (re.++ (re.+ (re.union (str.to_re "aaa") (str.to_re "bbb"))) (re.++ (re.union (re.* (str.to_re "cc")) (re.* (str.to_re "d"))) (re.++ (re.union (re.* (str.to_re "ee")) (re.* (str.to_re "fff"))) (re.++ (re.union (re.* (str.to_re "ggg")) (re.* (str.to_re "hh"))) (re.++ (re.union (re.+ (str.to_re "iii")) (re.+ (str.to_re "jjj"))) (re.++ (re.* (re.* (str.to_re "k"))) (re.++ (re.+ (re.union (str.to_re "lll") (str.to_re "mm"))) (re.++ (re.union (re.union (str.to_re "nn") (str.to_re "o")) (re.union (str.to_re "pp") (str.to_re "qqq"))) (re.++ (re.union (re.* (str.to_re "rr")) (re.* (str.to_re "sss"))) (re.++ (re.+ (re.* (str.to_re "ttt"))) (re.++ (re.union (re.union (str.to_re "uuu") (str.to_re "vv")) (re.union (str.to_re "ww") (str.to_re "x"))) (re.++ (re.+ (re.+ (str.to_re "yyy"))) (re.++ (re.+ (re.* (str.to_re "zzz"))) (re.++ (re.+ (re.+ (str.to_re "A"))) (re.++ (re.union (re.union (str.to_re "BB") (str.to_re "CC")) (re.union (str.to_re "DDD") (str.to_re "EEE"))) (re.++ (re.+ (re.* (str.to_re "F"))) (re.++ (re.* (re.union (str.to_re "G") (str.to_re "HH"))) (re.++ (re.+ (re.* (str.to_re "III"))) (re.++ (re.union (re.union (str.to_re "JJJ") (str.to_re "KKK")) (re.union (str.to_re "LLL") (str.to_re "MMM"))) (re.++ (re.+ (re.* (str.to_re "N"))) (re.++ (re.+ (re.union (str.to_re "OOO") (str.to_re "PPP"))) (re.++ (re.+ (re.* (str.to_re "QQQ"))) (re.++ (re.union (re.union (str.to_re "RR") (str.to_re "SSS")) (re.union (str.to_re "TT") (str.to_re "UUU"))) (re.++ (re.* (re.union (str.to_re "VV") (str.to_re "WW"))) (re.++ (re.union (re.* (str.to_re "X")) (re.* (str.to_re "Y"))) (re.++ (re.* (re.* (str.to_re "ZZ"))) (re.++ (re.* (re.* (str.to_re "!"))) (re.++ (re.union (re.+ (str.to_re """""")) (re.+ (str.to_re "###"))) (re.++ (re.* (re.union (str.to_re "$") (str.to_re "%%%"))) (re.++ (re.+ (re.* (str.to_re "&&"))) (re.++ (re.* (re.+ (str.to_re "'"))) (re.++ (re.+ (re.+ (str.to_re "((("))) (re.++ (re.* (re.union (str.to_re ")") (str.to_re "*"))) (re.++ (re.+ (re.+ (str.to_re "+"))) (re.++ (re.* (re.* (str.to_re ",,,"))) (re.* (re.+ (str.to_re "-")))))))))))))))))))))))))))))))))))))))))))))
(assert (not (str.in_re var0 (re.++ (re.union (re.* (str.to_re "0")) (re.* (str.to_re "11"))) (re.++ (re.+ (re.union (str.to_re "22") (str.to_re "3"))) (re.++ (re.* (re.* (str.to_re "4"))) (re.++ (re.union (re.+ (str.to_re "55")) (re.+ (str.to_re "666"))) (re.++ (re.union (re.+ (str.to_re "777")) (re.+ (str.to_re "8"))) (re.++ (re.union (re.* (str.to_re "99")) (re.* (str.to_re "aaa"))) (re.++ (re.* (re.+ (str.to_re "bb"))) (re.++ (re.+ (re.* (str.to_re "c"))) (re.++ (re.union (re.union (str.to_re "ddd") (str.to_re "eee")) (re.union (str.to_re "ff") (str.to_re "gg"))) (re.++ (re.union (re.* (str.to_re "hhh")) (re.* (str.to_re "i"))) (re.++ (re.+ (re.+ (str.to_re "jjj"))) (re.++ (re.union (re.union (str.to_re "k") (str.to_re "l")) (re.union (str.to_re "m") (str.to_re "n"))) (re.++ (re.* (re.* (str.to_re "oo"))) (re.++ (re.+ (re.* (str.to_re "ppp"))) (re.++ (re.+ (re.* (str.to_re "q"))) (re.++ (re.+ (re.union (str.to_re "rr") (str.to_re "s"))) (re.++ (re.* (re.union (str.to_re "ttt") (str.to_re "uu"))) (re.++ (re.* (re.* (str.to_re "v"))) (re.++ (re.+ (re.+ (str.to_re "ww"))) (re.++ (re.* (re.* (str.to_re "x"))) (re.++ (re.* (re.union (str.to_re "yy") (str.to_re "zz"))) (re.++ (re.* (re.+ (str.to_re "AA"))) (re.++ (re.+ (re.* (str.to_re "BBB"))) (re.++ (re.* (re.+ (str.to_re "CC"))) (re.++ (re.union (re.union (str.to_re "DD") (str.to_re "E")) (re.union (str.to_re "FFF") (str.to_re "GGG"))) (re.++ (re.union (re.+ (str.to_re "HH")) (re.+ (str.to_re "II"))) (re.++ (re.union (re.+ (str.to_re "JJJ")) (re.+ (str.to_re "KKK"))) (re.++ (re.union (re.union (str.to_re "LL") (str.to_re "MM")) (re.union (str.to_re "NNN") (str.to_re "OOO"))) (re.++ (re.* (re.union (str.to_re "P") (str.to_re "QQQ"))) (re.++ (re.* (re.+ (str.to_re "RRR"))) (re.++ (re.union (re.* (str.to_re "SS")) (re.* (str.to_re "TTT"))) (re.++ (re.+ (re.union (str.to_re "U") (str.to_re "VVV"))) (re.++ (re.* (re.+ (str.to_re "W"))) (re.++ (re.* (re.+ (str.to_re "XX"))) (re.++ (re.* (re.union (str.to_re "YY") (str.to_re "Z"))) (re.++ (re.union (re.+ (str.to_re "!!!")) (re.+ (str.to_re """"""))) (re.++ (re.* (re.* (str.to_re "###"))) (re.++ (re.+ (re.* (str.to_re "$$$"))) (re.++ (re.+ (re.union (str.to_re "%%") (str.to_re "&&"))) (re.++ (re.+ (re.union (str.to_re "'") (str.to_re "(("))) (re.* (re.+ (str.to_re "))"))))))))))))))))))))))))))))))))))))))))))))))
(check-sat)